p cnf 400 1
400 0
w 1 0.0790448
w 2 1 1
w 2 -1 0
w 3 2 0
w 3 -2 1
w 4 3 0.450893
w 4 -3 0.909552
w 5 4 1
w 5 -4 0
w 6 5 0
w 6 -5 1
w 7 6 0
w 7 -6 1
w 8 7 0
w 8 -7 1
w 9 8 1
w 9 -8 0
w 10 9 0.96453
w 10 -9 0.9911
w 11 10 0
w 11 -10 1
w 12 11 0
w 12 -11 1
w 13 12 1
w 13 -12 0
w 14 13 1
w 14 -13 0
w 15 14 0
w 15 -14 1
w 16 15 1
w 16 -15 0
w 17 16 0
w 17 -16 1
w 18 17 0
w 18 -17 1
w 19 18 0
w 19 -18 1
w 20 19 1
w 20 -19 0
w 21 1 0.555829
w 21 -1 0.667994
w 22 21 2 1
w 22 21 -2 1
w 22 -21 2 1
w 22 -21 -2 0
w 23 22 3 0.506166
w 23 22 -3 0.728327
w 23 -22 3 0.486905
w 23 -22 -3 0.747784
w 24 23 4 1
w 24 23 -4 1
w 24 -23 4 0
w 24 -23 -4 1
w 25 24 5 0.732458
w 25 24 -5 0.58813
w 25 -24 5 0.669325
w 25 -24 -5 0.611148
w 26 25 6 1
w 26 25 -6 0
w 26 -25 6 1
w 26 -25 -6 1
w 27 26 7 1
w 27 26 -7 0
w 27 -26 7 0
w 27 -26 -7 1
w 28 27 8 0
w 28 27 -8 0
w 28 -27 8 0
w 28 -27 -8 1
w 29 28 9 1
w 29 28 -9 0
w 29 -28 9 1
w 29 -28 -9 0
w 30 29 10 0
w 30 29 -10 0
w 30 -29 10 0
w 30 -29 -10 1
w 31 30 11 0.594474
w 31 30 -11 0.376917
w 31 -30 11 0.525769
w 31 -30 -11 0.205622
w 32 31 12 0
w 32 31 -12 1
w 32 -31 12 0
w 32 -31 -12 1
w 33 32 13 0.0447882
w 33 32 -13 0.643064
w 33 -32 13 0.10093
w 33 -32 -13 0.744187
w 34 33 14 1
w 34 33 -14 0
w 34 -33 14 0
w 34 -33 -14 0
w 35 34 15 1
w 35 34 -15 0
w 35 -34 15 0
w 35 -34 -15 1
w 36 35 16 0
w 36 35 -16 1
w 36 -35 16 1
w 36 -35 -16 0
w 37 36 17 0
w 37 36 -17 1
w 37 -36 17 1
w 37 -36 -17 0
w 38 37 18 0
w 38 37 -18 0
w 38 -37 18 1
w 38 -37 -18 1
w 39 38 19 0
w 39 38 -19 0
w 39 -38 19 0
w 39 -38 -19 1
w 40 39 20 0
w 40 39 -20 0
w 40 -39 20 1
w 40 -39 -20 0
w 41 21 0
w 41 -21 1
w 42 41 22 0.418202
w 42 41 -22 0.0471429
w 42 -41 22 0.299239
w 42 -41 -22 0.623725
w 43 42 23 0
w 43 42 -23 1
w 43 -42 23 1
w 43 -42 -23 1
w 44 43 24 0
w 44 43 -24 0
w 44 -43 24 1
w 44 -43 -24 1
w 45 44 25 0
w 45 44 -25 0
w 45 -44 25 1
w 45 -44 -25 1
w 46 45 26 0
w 46 45 -26 0
w 46 -45 26 0
w 46 -45 -26 1
w 47 46 27 1
w 47 46 -27 0
w 47 -46 27 1
w 47 -46 -27 1
w 48 47 28 0.860814
w 48 47 -28 0.728224
w 48 -47 28 0.926558
w 48 -47 -28 0.160052
w 49 48 29 0
w 49 48 -29 0
w 49 -48 29 1
w 49 -48 -29 1
w 50 49 30 0
w 50 49 -30 1
w 50 -49 30 1
w 50 -49 -30 0
w 51 50 31 1
w 51 50 -31 0
w 51 -50 31 1
w 51 -50 -31 1
w 52 51 32 0
w 52 51 -32 1
w 52 -51 32 1
w 52 -51 -32 0
w 53 52 33 0.705969
w 53 52 -33 0.562736
w 53 -52 33 0.394117
w 53 -52 -33 0.745376
w 54 53 34 0.273533
w 54 53 -34 0.60619
w 54 -53 34 0.600982
w 54 -53 -34 0.200091
w 55 54 35 0.952931
w 55 54 -35 0.220837
w 55 -54 35 0.7327
w 55 -54 -35 0.000158026
w 56 55 36 0
w 56 55 -36 0
w 56 -55 36 1
w 56 -55 -36 1
w 57 56 37 0
w 57 56 -37 0
w 57 -56 37 0
w 57 -56 -37 1
w 58 57 38 1
w 58 57 -38 1
w 58 -57 38 0
w 58 -57 -38 1
w 59 58 39 0
w 59 58 -39 1
w 59 -58 39 1
w 59 -58 -39 1
w 60 59 40 0
w 60 59 -40 0
w 60 -59 40 1
w 60 -59 -40 1
w 61 41 0.597326
w 61 -41 0.431122
w 62 61 42 1
w 62 61 -42 1
w 62 -61 42 0
w 62 -61 -42 1
w 63 62 43 0
w 63 62 -43 0
w 63 -62 43 1
w 63 -62 -43 0
w 64 63 44 0.559849
w 64 63 -44 0.188212
w 64 -63 44 0.440349
w 64 -63 -44 0.6515
w 65 64 45 1
w 65 64 -45 1
w 65 -64 45 0
w 65 -64 -45 1
w 66 65 46 0
w 66 65 -46 0
w 66 -65 46 0
w 66 -65 -46 1
w 67 66 47 0.490626
w 67 66 -47 0.767709
w 67 -66 47 0.557871
w 67 -66 -47 0.921749
w 68 67 48 0.887896
w 68 67 -48 0.353029
w 68 -67 48 0.311421
w 68 -67 -48 0.0194381
w 69 68 49 1
w 69 68 -49 0
w 69 -68 49 0
w 69 -68 -49 1
w 70 69 50 1
w 70 69 -50 0
w 70 -69 50 1
w 70 -69 -50 0
w 71 70 51 0
w 71 70 -51 1
w 71 -70 51 0
w 71 -70 -51 0
w 72 71 52 0
w 72 71 -52 0
w 72 -71 52 0
w 72 -71 -52 1
w 73 72 53 0
w 73 72 -53 1
w 73 -72 53 0
w 73 -72 -53 1
w 74 73 54 1
w 74 73 -54 1
w 74 -73 54 1
w 74 -73 -54 0
w 75 74 55 0
w 75 74 -55 0
w 75 -74 55 0
w 75 -74 -55 1
w 76 75 56 0.473896
w 76 75 -56 0.0596084
w 76 -75 56 0.25918
w 76 -75 -56 0.52031
w 77 76 57 0
w 77 76 -57 1
w 77 -76 57 0
w 77 -76 -57 0
w 78 77 58 0
w 78 77 -58 1
w 78 -77 58 0
w 78 -77 -58 0
w 79 78 59 0
w 79 78 -59 1
w 79 -78 59 1
w 79 -78 -59 1
w 80 79 60 0
w 80 79 -60 1
w 80 -79 60 0
w 80 -79 -60 1
w 81 61 0.342804
w 81 -61 0.0243199
w 82 81 62 0.867456
w 82 81 -62 0.92182
w 82 -81 62 0.254064
w 82 -81 -62 0.927064
w 83 82 63 0
w 83 82 -63 1
w 83 -82 63 1
w 83 -82 -63 0
w 84 83 64 1
w 84 83 -64 1
w 84 -83 64 1
w 84 -83 -64 0
w 85 84 65 1
w 85 84 -65 0
w 85 -84 65 1
w 85 -84 -65 0
w 86 85 66 0.497945
w 86 85 -66 0.837986
w 86 -85 66 0.583667
w 86 -85 -66 0.555488
w 87 86 67 1
w 87 86 -67 0
w 87 -86 67 1
w 87 -86 -67 0
w 88 87 68 0.371545
w 88 87 -68 0.587186
w 88 -87 68 0.801914
w 88 -87 -68 0.625609
w 89 88 69 0
w 89 88 -69 1
w 89 -88 69 0
w 89 -88 -69 1
w 90 89 70 1
w 90 89 -70 0
w 90 -89 70 0
w 90 -89 -70 0
w 91 90 71 0
w 91 90 -71 1
w 91 -90 71 1
w 91 -90 -71 1
w 92 91 72 1
w 92 91 -72 1
w 92 -91 72 0
w 92 -91 -72 0
w 93 92 73 0
w 93 92 -73 1
w 93 -92 73 0
w 93 -92 -73 1
w 94 93 74 1
w 94 93 -74 0
w 94 -93 74 0
w 94 -93 -74 1
w 95 94 75 0
w 95 94 -75 1
w 95 -94 75 1
w 95 -94 -75 1
w 96 95 76 0
w 96 95 -76 0
w 96 -95 76 1
w 96 -95 -76 0
w 97 96 77 1
w 97 96 -77 0
w 97 -96 77 1
w 97 -96 -77 0
w 98 97 78 0
w 98 97 -78 1
w 98 -97 78 0
w 98 -97 -78 0
w 99 98 79 0.054291
w 99 98 -79 0.00947174
w 99 -98 79 0.0613137
w 99 -98 -79 0.757417
w 100 99 80 0
w 100 99 -80 1
w 100 -99 80 0
w 100 -99 -80 1
w 101 81 1
w 101 -81 0
w 102 101 82 1
w 102 101 -82 1
w 102 -101 82 0
w 102 -101 -82 0
w 103 102 83 0
w 103 102 -83 1
w 103 -102 83 0
w 103 -102 -83 0
w 104 103 84 0
w 104 103 -84 1
w 104 -103 84 0
w 104 -103 -84 0
w 105 104 85 1
w 105 104 -85 0
w 105 -104 85 1
w 105 -104 -85 1
w 106 105 86 1
w 106 105 -86 0
w 106 -105 86 0
w 106 -105 -86 0
w 107 106 87 0
w 107 106 -87 1
w 107 -106 87 0
w 107 -106 -87 1
w 108 107 88 1
w 108 107 -88 0
w 108 -107 88 1
w 108 -107 -88 1
w 109 108 89 1
w 109 108 -89 0
w 109 -108 89 0
w 109 -108 -89 1
w 110 109 90 0.0403874
w 110 109 -90 0.755042
w 110 -109 90 0.839262
w 110 -109 -90 0.527519
w 111 110 91 0.122462
w 111 110 -91 0.957193
w 111 -110 91 0.983332
w 111 -110 -91 0.196476
w 112 111 92 1
w 112 111 -92 1
w 112 -111 92 0
w 112 -111 -92 1
w 113 112 93 0
w 113 112 -93 1
w 113 -112 93 0
w 113 -112 -93 0
w 114 113 94 0.802181
w 114 113 -94 0.600319
w 114 -113 94 0.0826472
w 114 -113 -94 0.922765
w 115 114 95 0.0835432
w 115 114 -95 0.417872
w 115 -114 95 0.449394
w 115 -114 -95 0.146631
w 116 115 96 0
w 116 115 -96 1
w 116 -115 96 0
w 116 -115 -96 0
w 117 116 97 1
w 117 116 -97 0
w 117 -116 97 1
w 117 -116 -97 0
w 118 117 98 0
w 118 117 -98 1
w 118 -117 98 1
w 118 -117 -98 1
w 119 118 99 1
w 119 118 -99 1
w 119 -118 99 1
w 119 -118 -99 0
w 120 119 100 0
w 120 119 -100 0
w 120 -119 100 1
w 120 -119 -100 1
w 121 101 0.884094
w 121 -101 0.870506
w 122 121 102 1
w 122 121 -102 0
w 122 -121 102 1
w 122 -121 -102 1
w 123 122 103 0.467543
w 123 122 -103 0.816123
w 123 -122 103 0.65745
w 123 -122 -103 0.480044
w 124 123 104 1
w 124 123 -104 1
w 124 -123 104 1
w 124 -123 -104 0
w 125 124 105 0
w 125 124 -105 1
w 125 -124 105 0
w 125 -124 -105 0
w 126 125 106 0
w 126 125 -106 1
w 126 -125 106 0
w 126 -125 -106 0
w 127 126 107 0
w 127 126 -107 0
w 127 -126 107 0
w 127 -126 -107 1
w 128 127 108 1
w 128 127 -108 0
w 128 -127 108 0
w 128 -127 -108 0
w 129 128 109 0
w 129 128 -109 0
w 129 -128 109 1
w 129 -128 -109 0
w 130 129 110 1
w 130 129 -110 1
w 130 -129 110 0
w 130 -129 -110 1
w 131 130 111 0
w 131 130 -111 1
w 131 -130 111 0
w 131 -130 -111 0
w 132 131 112 0
w 132 131 -112 0
w 132 -131 112 0
w 132 -131 -112 1
w 133 132 113 0.848995
w 133 132 -113 0.228604
w 133 -132 113 0.0104079
w 133 -132 -113 0.262046
w 134 133 114 1
w 134 133 -114 0
w 134 -133 114 0
w 134 -133 -114 1
w 135 134 115 1
w 135 134 -115 0
w 135 -134 115 0
w 135 -134 -115 1
w 136 135 116 1
w 136 135 -116 0
w 136 -135 116 0
w 136 -135 -116 0
w 137 136 117 0.314813
w 137 136 -117 0.810699
w 137 -136 117 0.520137
w 137 -136 -117 0.00361197
w 138 137 118 0.777441
w 138 137 -118 0.722903
w 138 -137 118 0.313241
w 138 -137 -118 0.0974795
w 139 138 119 0.0866764
w 139 138 -119 0.946475
w 139 -138 119 0.214899
w 139 -138 -119 0.0970844
w 140 139 120 0
w 140 139 -120 0
w 140 -139 120 1
w 140 -139 -120 0
w 141 121 1
w 141 -121 0
w 142 141 122 0
w 142 141 -122 1
w 142 -141 122 1
w 142 -141 -122 0
w 143 142 123 1
w 143 142 -123 0
w 143 -142 123 1
w 143 -142 -123 1
w 144 143 124 1
w 144 143 -124 0
w 144 -143 124 0
w 144 -143 -124 1
w 145 144 125 0
w 145 144 -125 0
w 145 -144 125 1
w 145 -144 -125 0
w 146 145 126 1
w 146 145 -126 0
w 146 -145 126 1
w 146 -145 -126 0
w 147 146 127 0.769108
w 147 146 -127 0.555075
w 147 -146 127 0.288071
w 147 -146 -127 0.121602
w 148 147 128 0.432106
w 148 147 -128 0.975999
w 148 -147 128 0.77427
w 148 -147 -128 0.665606
w 149 148 129 1
w 149 148 -129 0
w 149 -148 129 1
w 149 -148 -129 0
w 150 149 130 0
w 150 149 -130 1
w 150 -149 130 1
w 150 -149 -130 1
w 151 150 131 1
w 151 150 -131 0
w 151 -150 131 1
w 151 -150 -131 1
w 152 151 132 0
w 152 151 -132 1
w 152 -151 132 1
w 152 -151 -132 1
w 153 152 133 0
w 153 152 -133 0
w 153 -152 133 1
w 153 -152 -133 1
w 154 153 134 1
w 154 153 -134 1
w 154 -153 134 0
w 154 -153 -134 1
w 155 154 135 0
w 155 154 -135 0
w 155 -154 135 0
w 155 -154 -135 1
w 156 155 136 1
w 156 155 -136 0
w 156 -155 136 0
w 156 -155 -136 1
w 157 156 137 0
w 157 156 -137 0
w 157 -156 137 1
w 157 -156 -137 1
w 158 157 138 1
w 158 157 -138 1
w 158 -157 138 1
w 158 -157 -138 0
w 159 158 139 0.494354
w 159 158 -139 0.0209832
w 159 -158 139 0.485996
w 159 -158 -139 0.678438
w 160 159 140 1
w 160 159 -140 0
w 160 -159 140 1
w 160 -159 -140 1
w 161 141 1
w 161 -141 0
w 162 161 142 0.197061
w 162 161 -142 0.964453
w 162 -161 142 0.882015
w 162 -161 -142 0.380347
w 163 162 143 0.843884
w 163 162 -143 0.769685
w 163 -162 143 0.363871
w 163 -162 -143 0.857729
w 164 163 144 0
w 164 163 -144 1
w 164 -163 144 1
w 164 -163 -144 0
w 165 164 145 0.0974716
w 165 164 -145 0.11984
w 165 -164 145 0.533036
w 165 -164 -145 0.916087
w 166 165 146 0
w 166 165 -146 1
w 166 -165 146 0
w 166 -165 -146 0
w 167 166 147 1
w 167 166 -147 1
w 167 -166 147 1
w 167 -166 -147 0
w 168 167 148 1
w 168 167 -148 1
w 168 -167 148 0
w 168 -167 -148 1
w 169 168 149 0
w 169 168 -149 1
w 169 -168 149 0
w 169 -168 -149 0
w 170 169 150 0.555636
w 170 169 -150 0.914922
w 170 -169 150 0.444219
w 170 -169 -150 0.243605
w 171 170 151 0.541691
w 171 170 -151 0.363445
w 171 -170 151 0.366779
w 171 -170 -151 0.457778
w 172 171 152 0.920798
w 172 171 -152 0.85986
w 172 -171 152 0.27027
w 172 -171 -152 0.718925
w 173 172 153 0.401424
w 173 172 -153 0.758554
w 173 -172 153 0.185563
w 173 -172 -153 0.0989702
w 174 173 154 0
w 174 173 -154 1
w 174 -173 154 1
w 174 -173 -154 1
w 175 174 155 0.318458
w 175 174 -155 0.31317
w 175 -174 155 0.951604
w 175 -174 -155 0.0770797
w 176 175 156 1
w 176 175 -156 0
w 176 -175 156 1
w 176 -175 -156 1
w 177 176 157 0.0851338
w 177 176 -157 0.114291
w 177 -176 157 0.192523
w 177 -176 -157 0.542911
w 178 177 158 0
w 178 177 -158 1
w 178 -177 158 0
w 178 -177 -158 1
w 179 178 159 0
w 179 178 -159 1
w 179 -178 159 0
w 179 -178 -159 0
w 180 179 160 1
w 180 179 -160 0
w 180 -179 160 0
w 180 -179 -160 0
w 181 161 0
w 181 -161 1
w 182 181 162 0
w 182 181 -162 0
w 182 -181 162 1
w 182 -181 -162 0
w 183 182 163 0.601419
w 183 182 -163 0.0805382
w 183 -182 163 0.597702
w 183 -182 -163 0.427164
w 184 183 164 0
w 184 183 -164 0
w 184 -183 164 1
w 184 -183 -164 1
w 185 184 165 0
w 185 184 -165 1
w 185 -184 165 1
w 185 -184 -165 0
w 186 185 166 0.156055
w 186 185 -166 0.797308
w 186 -185 166 0.792337
w 186 -185 -166 0.29548
w 187 186 167 0
w 187 186 -167 1
w 187 -186 167 0
w 187 -186 -167 1
w 188 187 168 0
w 188 187 -168 1
w 188 -187 168 1
w 188 -187 -168 1
w 189 188 169 1
w 189 188 -169 0
w 189 -188 169 1
w 189 -188 -169 0
w 190 189 170 0.994385
w 190 189 -170 0.622231
w 190 -189 170 0.59753
w 190 -189 -170 0.702969
w 191 190 171 1
w 191 190 -171 1
w 191 -190 171 1
w 191 -190 -171 0
w 192 191 172 1
w 192 191 -172 0
w 192 -191 172 0
w 192 -191 -172 1
w 193 192 173 1
w 193 192 -173 0
w 193 -192 173 0
w 193 -192 -173 1
w 194 193 174 1
w 194 193 -174 0
w 194 -193 174 0
w 194 -193 -174 1
w 195 194 175 1
w 195 194 -175 0
w 195 -194 175 0
w 195 -194 -175 0
w 196 195 176 0.191928
w 196 195 -176 0.518423
w 196 -195 176 0.522123
w 196 -195 -176 0.789458
w 197 196 177 1
w 197 196 -177 0
w 197 -196 177 1
w 197 -196 -177 0
w 198 197 178 0
w 198 197 -178 1
w 198 -197 178 1
w 198 -197 -178 0
w 199 198 179 1
w 199 198 -179 0
w 199 -198 179 1
w 199 -198 -179 1
w 200 199 180 0
w 200 199 -180 1
w 200 -199 180 1
w 200 -199 -180 0
w 201 181 1
w 201 -181 0
w 202 201 182 0
w 202 201 -182 1
w 202 -201 182 0
w 202 -201 -182 0
w 203 202 183 0.760788
w 203 202 -183 0.800572
w 203 -202 183 0.69891
w 203 -202 -183 0.98218
w 204 203 184 0
w 204 203 -184 0
w 204 -203 184 0
w 204 -203 -184 1
w 205 204 185 1
w 205 204 -185 0
w 205 -204 185 1
w 205 -204 -185 0
w 206 205 186 1
w 206 205 -186 0
w 206 -205 186 1
w 206 -205 -186 1
w 207 206 187 0
w 207 206 -187 1
w 207 -206 187 0
w 207 -206 -187 1
w 208 207 188 0.296873
w 208 207 -188 0.352704
w 208 -207 188 0.128216
w 208 -207 -188 0.575322
w 209 208 189 0
w 209 208 -189 0
w 209 -208 189 0
w 209 -208 -189 1
w 210 209 190 0.889079
w 210 209 -190 0.414141
w 210 -209 190 0.614669
w 210 -209 -190 0.118563
w 211 210 191 0.516999
w 211 210 -191 0.532817
w 211 -210 191 0.494993
w 211 -210 -191 0.834292
w 212 211 192 1
w 212 211 -192 0
w 212 -211 192 1
w 212 -211 -192 0
w 213 212 193 0
w 213 212 -193 0
w 213 -212 193 0
w 213 -212 -193 1
w 214 213 194 0.396529
w 214 213 -194 0.109984
w 214 -213 194 0.889778
w 214 -213 -194 0.97185
w 215 214 195 0
w 215 214 -195 0
w 215 -214 195 1
w 215 -214 -195 0
w 216 215 196 0
w 216 215 -196 1
w 216 -215 196 1
w 216 -215 -196 1
w 217 216 197 0
w 217 216 -197 1
w 217 -216 197 1
w 217 -216 -197 0
w 218 217 198 0
w 218 217 -198 1
w 218 -217 198 1
w 218 -217 -198 1
w 219 218 199 0
w 219 218 -199 1
w 219 -218 199 1
w 219 -218 -199 0
w 220 219 200 0.0568489
w 220 219 -200 0.40859
w 220 -219 200 0.868788
w 220 -219 -200 0.946627
w 221 201 0
w 221 -201 1
w 222 221 202 0
w 222 221 -202 1
w 222 -221 202 1
w 222 -221 -202 0
w 223 222 203 0
w 223 222 -203 1
w 223 -222 203 1
w 223 -222 -203 1
w 224 223 204 0
w 224 223 -204 0
w 224 -223 204 0
w 224 -223 -204 1
w 225 224 205 1
w 225 224 -205 1
w 225 -224 205 0
w 225 -224 -205 0
w 226 225 206 1
w 226 225 -206 0
w 226 -225 206 1
w 226 -225 -206 0
w 227 226 207 0
w 227 226 -207 1
w 227 -226 207 1
w 227 -226 -207 0
w 228 227 208 0
w 228 227 -208 0
w 228 -227 208 1
w 228 -227 -208 1
w 229 228 209 0
w 229 228 -209 0
w 229 -228 209 1
w 229 -228 -209 1
w 230 229 210 0.939915
w 230 229 -210 0.737646
w 230 -229 210 0.667183
w 230 -229 -210 0.827675
w 231 230 211 0
w 231 230 -211 1
w 231 -230 211 0
w 231 -230 -211 0
w 232 231 212 1
w 232 231 -212 1
w 232 -231 212 1
w 232 -231 -212 0
w 233 232 213 1
w 233 232 -213 1
w 233 -232 213 0
w 233 -232 -213 1
w 234 233 214 0
w 234 233 -214 1
w 234 -233 214 0
w 234 -233 -214 0
w 235 234 215 0
w 235 234 -215 0
w 235 -234 215 1
w 235 -234 -215 0
w 236 235 216 0
w 236 235 -216 1
w 236 -235 216 0
w 236 -235 -216 0
w 237 236 217 0
w 237 236 -217 0
w 237 -236 217 0
w 237 -236 -217 1
w 238 237 218 1
w 238 237 -218 0
w 238 -237 218 0
w 238 -237 -218 0
w 239 238 219 1
w 239 238 -219 0
w 239 -238 219 1
w 239 -238 -219 0
w 240 239 220 1
w 240 239 -220 0
w 240 -239 220 1
w 240 -239 -220 0
w 241 221 1
w 241 -221 0
w 242 241 222 1
w 242 241 -222 0
w 242 -241 222 0
w 242 -241 -222 1
w 243 242 223 0
w 243 242 -223 0
w 243 -242 223 1
w 243 -242 -223 0
w 244 243 224 1
w 244 243 -224 0
w 244 -243 224 0
w 244 -243 -224 1
w 245 244 225 0
w 245 244 -225 1
w 245 -244 225 0
w 245 -244 -225 0
w 246 245 226 0.698572
w 246 245 -226 0.802954
w 246 -245 226 0.00846342
w 246 -245 -226 0.102987
w 247 246 227 0.323697
w 247 246 -227 0.416486
w 247 -246 227 0.593857
w 247 -246 -227 0.511018
w 248 247 228 0.292986
w 248 247 -228 0.648053
w 248 -247 228 0.673553
w 248 -247 -228 0.867777
w 249 248 229 0
w 249 248 -229 1
w 249 -248 229 1
w 249 -248 -229 1
w 250 249 230 0
w 250 249 -230 1
w 250 -249 230 1
w 250 -249 -230 0
w 251 250 231 0
w 251 250 -231 0
w 251 -250 231 0
w 251 -250 -231 1
w 252 251 232 1
w 252 251 -232 1
w 252 -251 232 0
w 252 -251 -232 1
w 253 252 233 0.727747
w 253 252 -233 0.860475
w 253 -252 233 0.433237
w 253 -252 -233 0.238765
w 254 253 234 0.726223
w 254 253 -234 0.886818
w 254 -253 234 0.505792
w 254 -253 -234 0.594
w 255 254 235 1
w 255 254 -235 0
w 255 -254 235 0
w 255 -254 -235 0
w 256 255 236 0
w 256 255 -236 1
w 256 -255 236 1
w 256 -255 -236 0
w 257 256 237 1
w 257 256 -237 0
w 257 -256 237 0
w 257 -256 -237 0
w 258 257 238 1
w 258 257 -238 1
w 258 -257 238 0
w 258 -257 -238 1
w 259 258 239 0
w 259 258 -239 0
w 259 -258 239 1
w 259 -258 -239 0
w 260 259 240 0
w 260 259 -240 0
w 260 -259 240 1
w 260 -259 -240 0
w 261 241 1
w 261 -241 0
w 262 261 242 0
w 262 261 -242 1
w 262 -261 242 0
w 262 -261 -242 0
w 263 262 243 1
w 263 262 -243 0
w 263 -262 243 1
w 263 -262 -243 1
w 264 263 244 0
w 264 263 -244 1
w 264 -263 244 1
w 264 -263 -244 1
w 265 264 245 1
w 265 264 -245 0
w 265 -264 245 0
w 265 -264 -245 0
w 266 265 246 0
w 266 265 -246 1
w 266 -265 246 0
w 266 -265 -246 1
w 267 266 247 1
w 267 266 -247 0
w 267 -266 247 0
w 267 -266 -247 1
w 268 267 248 0.889657
w 268 267 -248 0.497144
w 268 -267 248 0.605028
w 268 -267 -248 0.43189
w 269 268 249 1
w 269 268 -249 1
w 269 -268 249 0
w 269 -268 -249 0
w 270 269 250 0.245581
w 270 269 -250 0.357041
w 270 -269 250 0.925689
w 270 -269 -250 0.231171
w 271 270 251 0.226185
w 271 270 -251 0.889944
w 271 -270 251 0.728672
w 271 -270 -251 0.278594
w 272 271 252 0
w 272 271 -252 0
w 272 -271 252 1
w 272 -271 -252 1
w 273 272 253 1
w 273 272 -253 0
w 273 -272 253 0
w 273 -272 -253 1
w 274 273 254 1
w 274 273 -254 0
w 274 -273 254 0
w 274 -273 -254 0
w 275 274 255 1
w 275 274 -255 1
w 275 -274 255 0
w 275 -274 -255 1
w 276 275 256 0
w 276 275 -256 0
w 276 -275 256 1
w 276 -275 -256 1
w 277 276 257 0
w 277 276 -257 1
w 277 -276 257 0
w 277 -276 -257 0
w 278 277 258 0
w 278 277 -258 1
w 278 -277 258 0
w 278 -277 -258 1
w 279 278 259 1
w 279 278 -259 1
w 279 -278 259 1
w 279 -278 -259 0
w 280 279 260 0
w 280 279 -260 1
w 280 -279 260 1
w 280 -279 -260 0
w 281 261 1
w 281 -261 0
w 282 281 262 0
w 282 281 -262 0
w 282 -281 262 0
w 282 -281 -262 1
w 283 282 263 0.962186
w 283 282 -263 0.583439
w 283 -282 263 0.372818
w 283 -282 -263 0.641944
w 284 283 264 0.749512
w 284 283 -264 0.0503749
w 284 -283 264 0.424605
w 284 -283 -264 0.792096
w 285 284 265 0
w 285 284 -265 1
w 285 -284 265 0
w 285 -284 -265 1
w 286 285 266 0
w 286 285 -266 1
w 286 -285 266 1
w 286 -285 -266 0
w 287 286 267 0
w 287 286 -267 1
w 287 -286 267 1
w 287 -286 -267 1
w 288 287 268 0
w 288 287 -268 1
w 288 -287 268 1
w 288 -287 -268 0
w 289 288 269 1
w 289 288 -269 1
w 289 -288 269 0
w 289 -288 -269 0
w 290 289 270 1
w 290 289 -270 0
w 290 -289 270 0
w 290 -289 -270 0
w 291 290 271 1
w 291 290 -271 1
w 291 -290 271 0
w 291 -290 -271 1
w 292 291 272 1
w 292 291 -272 1
w 292 -291 272 0
w 292 -291 -272 1
w 293 292 273 0
w 293 292 -273 1
w 293 -292 273 1
w 293 -292 -273 1
w 294 293 274 0
w 294 293 -274 1
w 294 -293 274 0
w 294 -293 -274 1
w 295 294 275 1
w 295 294 -275 1
w 295 -294 275 0
w 295 -294 -275 0
w 296 295 276 0
w 296 295 -276 0
w 296 -295 276 1
w 296 -295 -276 1
w 297 296 277 0.534055
w 297 296 -277 0.0569506
w 297 -296 277 0.730075
w 297 -296 -277 0.663881
w 298 297 278 0.594866
w 298 297 -278 0.369136
w 298 -297 278 0.464007
w 298 -297 -278 0.952543
w 299 298 279 0
w 299 298 -279 0
w 299 -298 279 0
w 299 -298 -279 1
w 300 299 280 1
w 300 299 -280 1
w 300 -299 280 0
w 300 -299 -280 1
w 301 281 0
w 301 -281 1
w 302 301 282 0
w 302 301 -282 1
w 302 -301 282 1
w 302 -301 -282 1
w 303 302 283 1
w 303 302 -283 0
w 303 -302 283 1
w 303 -302 -283 1
w 304 303 284 1
w 304 303 -284 0
w 304 -303 284 0
w 304 -303 -284 0
w 305 304 285 0
w 305 304 -285 1
w 305 -304 285 1
w 305 -304 -285 1
w 306 305 286 1
w 306 305 -286 1
w 306 -305 286 0
w 306 -305 -286 1
w 307 306 287 0.48949
w 307 306 -287 0.690331
w 307 -306 287 0.952407
w 307 -306 -287 0.613084
w 308 307 288 0
w 308 307 -288 1
w 308 -307 288 1
w 308 -307 -288 1
w 309 308 289 0
w 309 308 -289 1
w 309 -308 289 0
w 309 -308 -289 1
w 310 309 290 0
w 310 309 -290 1
w 310 -309 290 0
w 310 -309 -290 0
w 311 310 291 1
w 311 310 -291 0
w 311 -310 291 1
w 311 -310 -291 0
w 312 311 292 0
w 312 311 -292 1
w 312 -311 292 1
w 312 -311 -292 0
w 313 312 293 0.552796
w 313 312 -293 0.156852
w 313 -312 293 0.706497
w 313 -312 -293 0.165879
w 314 313 294 0
w 314 313 -294 0
w 314 -313 294 0
w 314 -313 -294 1
w 315 314 295 0.633442
w 315 314 -295 0.0710502
w 315 -314 295 0.987543
w 315 -314 -295 0.415409
w 316 315 296 0
w 316 315 -296 1
w 316 -315 296 0
w 316 -315 -296 0
w 317 316 297 1
w 317 316 -297 1
w 317 -316 297 0
w 317 -316 -297 0
w 318 317 298 1
w 318 317 -298 1
w 318 -317 298 0
w 318 -317 -298 0
w 319 318 299 0
w 319 318 -299 0
w 319 -318 299 0
w 319 -318 -299 1
w 320 319 300 0
w 320 319 -300 1
w 320 -319 300 1
w 320 -319 -300 0
w 321 301 1
w 321 -301 0
w 322 321 302 1
w 322 321 -302 1
w 322 -321 302 0
w 322 -321 -302 0
w 323 322 303 0.228312
w 323 322 -303 0.232657
w 323 -322 303 0.969611
w 323 -322 -303 0.808503
w 324 323 304 1
w 324 323 -304 1
w 324 -323 304 0
w 324 -323 -304 1
w 325 324 305 0.402271
w 325 324 -305 0.758925
w 325 -324 305 0.776602
w 325 -324 -305 0.517541
w 326 325 306 0
w 326 325 -306 0
w 326 -325 306 1
w 326 -325 -306 0
w 327 326 307 0
w 327 326 -307 1
w 327 -326 307 1
w 327 -326 -307 1
w 328 327 308 0
w 328 327 -308 1
w 328 -327 308 0
w 328 -327 -308 0
w 329 328 309 0
w 329 328 -309 1
w 329 -328 309 1
w 329 -328 -309 0
w 330 329 310 1
w 330 329 -310 1
w 330 -329 310 0
w 330 -329 -310 1
w 331 330 311 0
w 331 330 -311 0
w 331 -330 311 1
w 331 -330 -311 0
w 332 331 312 0
w 332 331 -312 1
w 332 -331 312 0
w 332 -331 -312 0
w 333 332 313 1
w 333 332 -313 0
w 333 -332 313 0
w 333 -332 -313 0
w 334 333 314 0.948682
w 334 333 -314 0.740564
w 334 -333 314 0.335316
w 334 -333 -314 0.502544
w 335 334 315 0
w 335 334 -315 0
w 335 -334 315 1
w 335 -334 -315 1
w 336 335 316 0
w 336 335 -316 0
w 336 -335 316 0
w 336 -335 -316 1
w 337 336 317 0
w 337 336 -317 1
w 337 -336 317 1
w 337 -336 -317 0
w 338 337 318 1
w 338 337 -318 0
w 338 -337 318 1
w 338 -337 -318 1
w 339 338 319 0
w 339 338 -319 1
w 339 -338 319 1
w 339 -338 -319 0
w 340 339 320 0
w 340 339 -320 0
w 340 -339 320 0
w 340 -339 -320 1
w 341 321 0.465926
w 341 -321 0.615418
w 342 341 322 0
w 342 341 -322 0
w 342 -341 322 1
w 342 -341 -322 1
w 343 342 323 1
w 343 342 -323 0
w 343 -342 323 1
w 343 -342 -323 1
w 344 343 324 0
w 344 343 -324 1
w 344 -343 324 1
w 344 -343 -324 0
w 345 344 325 0
w 345 344 -325 1
w 345 -344 325 1
w 345 -344 -325 0
w 346 345 326 1
w 346 345 -326 1
w 346 -345 326 0
w 346 -345 -326 1
w 347 346 327 0
w 347 346 -327 0
w 347 -346 327 1
w 347 -346 -327 0
w 348 347 328 0
w 348 347 -328 0
w 348 -347 328 0
w 348 -347 -328 1
w 349 348 329 1
w 349 348 -329 1
w 349 -348 329 1
w 349 -348 -329 0
w 350 349 330 0
w 350 349 -330 0
w 350 -349 330 1
w 350 -349 -330 0
w 351 350 331 0.544616
w 351 350 -331 0.806398
w 351 -350 331 0.847285
w 351 -350 -331 0.883768
w 352 351 332 0.204773
w 352 351 -332 0.651797
w 352 -351 332 0.440231
w 352 -351 -332 0.745513
w 353 352 333 0.00200819
w 353 352 -333 0.804823
w 353 -352 333 0.823079
w 353 -352 -333 0.0297113
w 354 353 334 0
w 354 353 -334 1
w 354 -353 334 1
w 354 -353 -334 0
w 355 354 335 0.905662
w 355 354 -335 0.616551
w 355 -354 335 0.777041
w 355 -354 -335 0.532483
w 356 355 336 1
w 356 355 -336 0
w 356 -355 336 1
w 356 -355 -336 1
w 357 356 337 1
w 357 356 -337 1
w 357 -356 337 0
w 357 -356 -337 1
w 358 357 338 0.56638
w 358 357 -338 0.960007
w 358 -357 338 0.259544
w 358 -357 -338 0.311893
w 359 358 339 0.261552
w 359 358 -339 0.116717
w 359 -358 339 0.580472
w 359 -358 -339 0.291263
w 360 359 340 0
w 360 359 -340 1
w 360 -359 340 0
w 360 -359 -340 0
w 361 341 0
w 361 -341 1
w 362 361 342 1
w 362 361 -342 0
w 362 -361 342 1
w 362 -361 -342 0
w 363 362 343 0
w 363 362 -343 1
w 363 -362 343 0
w 363 -362 -343 0
w 364 363 344 1
w 364 363 -344 1
w 364 -363 344 1
w 364 -363 -344 0
w 365 364 345 1
w 365 364 -345 0
w 365 -364 345 1
w 365 -364 -345 1
w 366 365 346 0.811486
w 366 365 -346 0.171772
w 366 -365 346 0.179724
w 366 -365 -346 0.407754
w 367 366 347 0.00170248
w 367 366 -347 0.440602
w 367 -366 347 0.397944
w 367 -366 -347 0.728384
w 368 367 348 1
w 368 367 -348 0
w 368 -367 348 1
w 368 -367 -348 0
w 369 368 349 0
w 369 368 -349 1
w 369 -368 349 1
w 369 -368 -349 0
w 370 369 350 0
w 370 369 -350 1
w 370 -369 350 0
w 370 -369 -350 1
w 371 370 351 0
w 371 370 -351 1
w 371 -370 351 0
w 371 -370 -351 0
w 372 371 352 0
w 372 371 -352 0
w 372 -371 352 1
w 372 -371 -352 1
w 373 372 353 0
w 373 372 -353 1
w 373 -372 353 0
w 373 -372 -353 1
w 374 373 354 1
w 374 373 -354 0
w 374 -373 354 1
w 374 -373 -354 0
w 375 374 355 1
w 375 374 -355 1
w 375 -374 355 0
w 375 -374 -355 1
w 376 375 356 0
w 376 375 -356 0
w 376 -375 356 0
w 376 -375 -356 1
w 377 376 357 0
w 377 376 -357 1
w 377 -376 357 1
w 377 -376 -357 0
w 378 377 358 1
w 378 377 -358 0
w 378 -377 358 1
w 378 -377 -358 0
w 379 378 359 1
w 379 378 -359 0
w 379 -378 359 1
w 379 -378 -359 1
w 380 379 360 0.196578
w 380 379 -360 0.978087
w 380 -379 360 0.609984
w 380 -379 -360 0.314689
w 381 361 0
w 381 -361 1
w 382 381 362 0.700478
w 382 381 -362 0.697876
w 382 -381 362 0.663958
w 382 -381 -362 0.336594
w 383 382 363 0.127125
w 383 382 -363 0.124116
w 383 -382 363 0.895848
w 383 -382 -363 0.666032
w 384 383 364 0
w 384 383 -364 1
w 384 -383 364 1
w 384 -383 -364 1
w 385 384 365 1
w 385 384 -365 1
w 385 -384 365 0
w 385 -384 -365 1
w 386 385 366 0
w 386 385 -366 1
w 386 -385 366 0
w 386 -385 -366 0
w 387 386 367 0.831002
w 387 386 -367 0.206727
w 387 -386 367 0.0676826
w 387 -386 -367 0.230274
w 388 387 368 0
w 388 387 -368 0
w 388 -387 368 1
w 388 -387 -368 1
w 389 388 369 1
w 389 388 -369 1
w 389 -388 369 0
w 389 -388 -369 0
w 390 389 370 0
w 390 389 -370 1
w 390 -389 370 1
w 390 -389 -370 1
w 391 390 371 0.081798
w 391 390 -371 0.422315
w 391 -390 371 0.520935
w 391 -390 -371 0.425549
w 392 391 372 0
w 392 391 -372 0
w 392 -391 372 1
w 392 -391 -372 0
w 393 392 373 0
w 393 392 -373 1
w 393 -392 373 0
w 393 -392 -373 1
w 394 393 374 0.992074
w 394 393 -374 0.404095
w 394 -393 374 0.722433
w 394 -393 -374 0.733218
w 395 394 375 1
w 395 394 -375 0
w 395 -394 375 0
w 395 -394 -375 1
w 396 395 376 1
w 396 395 -376 1
w 396 -395 376 0
w 396 -395 -376 0
w 397 396 377 0
w 397 396 -377 0
w 397 -396 377 1
w 397 -396 -377 0
w 398 397 378 0
w 398 397 -378 1
w 398 -397 378 0
w 398 -397 -378 0
w 399 398 379 1
w 399 398 -379 1
w 399 -398 379 1
w 399 -398 -379 0
w 400 399 380 0.322731
w 400 399 -380 0.993292
w 400 -399 380 0.657194
w 400 -399 -380 0.36763